10J3M/DAT/10J3MNTL-14.dat
10 3
31.031 31.031
34.9574 34.9574
20.0667 20.0667
13.1107 13.1107
23.6235 23.6235
29.2109 29.2109
27.651 27.651
20.9287 20.9287
28.4542 28.4542
22.7746 22.7746
62.9522