10J3M/SOL/10J3MNTL-14.sol
solution status: optimal solution found
objective value:                              61.1477
x#1#2                              0.0203409021978691 	(obj:0)
x#3#2                                               1 	(obj:0)
x#4#3                                               1 	(obj:0)
x#5#1                                               1 	(obj:0)
x#6#1                              0.0928725455085759 	(obj:0)
x#6#3                               0.723607311850898 	(obj:0)
x#7#1                                               1 	(obj:0)
x#8#2                                               1 	(obj:0)
x#9#1                                               1 	(obj:0)
x#10#3                                              1 	(obj:0)
z                                             61.1477 	(obj:1)
